Traveling Salesman Problem/TSP_generados/Aleatorio1621103342_11.tsp
NAME: Aleatorio1621103342_11.tsp
COMMENT: Randomly generated scenario
TYPE: TSP
DIMENSION: 11
EDGE_WEIGHT_TYPE: ATT
NODE_COORD_SECTION
1 0.92 12.22
2 46.84 6.76
3 7.11 24.31
4 24.02 0.56
5 32.81 19.76
6 3.62 39.46
7 16.89 1.6
8 24.5 47.27
9 39.05 41.47
10 17.59 46.63
11 22.84 21.76
