Traveling Salesman Problem/TSP_generados/Aleatorio1621103342_11.opt.tour
NAME: Aleatorio1621103342_11.opt.tour
COMMENT: Optimal solution for Aleatorio1621103342_11 (172.2814394137567)
TYPE: TOUR
DIMENSION: 11
TOUR_SECTION
1 3 6 10 8 9 11 5 2 4 7
-1
EOF
